100 10
91 56
19 49
77 49
31 33
52 68
74 67
95 1
59 9
69 9
87 66
77 77
78 62
66 35
12 42
10 57
18 99
96 65
75 8
68 7
100 40
76 19
92 34
70 47
17 40
18 19
31 58
86 65
1 93
64 56
91 57
90 27
87 48
31 4
70 79
60 97
70 100
10 84
82 82
70 93
61 11
37 4
32 2
51 50
91 28
68 51
31 83
43 77
13 73
47 60
31 67
96 96
73 87
12 10
48 17
89 37
19 70
67 44
23 78
33 57
100 15
19 86
71 56
51 64
88 69
44 72
40 52
45 65
74 46
52 88
1 74
33 10
86 28
41 13
30 80
64 43
16 27
41 87
83 47
37 48
55 54
98 60
83 52
32 73
80 20
38 77
56 44
19 72
92 99
94 69
86 49
22 87
81 18
44 44
37 17
89 55
66 83
94 43
33 3
52 25
81 9
627 752
429 490
570 654
462 543
714 862
524 598
564 650
429 529
494 610
522 622
